\ENCODING=ISO-8859-1
\Problem name: Generalized Multiple Knapsack Problem

Maximize
 obj: 90 x_1_4 + 33 x_1_10 + 90 x_2_4 + 33 x_2_10 + 90 x_3_4 + 33 x_3_10
Subject To
 capacity_1:           8 x_1_4 + 3 x_1_10 + 8 x_1_1 + 6 x_1_2 + 3 x_1_3
                       + 9 x_1_5 + x_1_6 + 6 x_1_7 + 9 x_1_8 + 3 x_1_9 + y_1_1
                       <= 14
 capacity_2:           8 x_2_4 + 3 x_2_10 + 8 x_2_1 + 6 x_2_2 + 3 x_2_3
                       + 9 x_2_5 + x_2_6 + 6 x_2_7 + 9 x_2_8 + 3 x_2_9 + y_2_1
                       <= 14
 capacity_3:           8 x_3_4 + 3 x_3_10 + 8 x_3_1 + 6 x_3_2 + 3 x_3_3
                       + 9 x_3_5 + x_3_6 + 6 x_3_7 + 9 x_3_8 + 3 x_3_9 + y_3_1
                       <= 14
 max_one_bin_1:        y_1_1 + y_2_1 + y_3_1 <= 1
 dependent_decision_1: x_1_4 + x_1_10 + x_1_1 + x_1_2 + x_1_3 + x_1_5 + x_1_6
                       + x_1_7 + x_1_8 + x_1_9 - 10 y_1_1 <= 0
 dependent_decision_2: x_2_4 + x_2_10 + x_2_1 + x_2_2 + x_2_3 + x_2_5 + x_2_6
                       + x_2_7 + x_2_8 + x_2_9 - 10 y_2_1 <= 0
 dependent_decision_3: x_3_4 + x_3_10 + x_3_1 + x_3_2 + x_3_3 + x_3_5 + x_3_6
                       + x_3_7 + x_3_8 + x_3_9 - 10 y_3_1 <= 0
Bounds
 0 <= x_1_4 <= 1
 0 <= x_1_10 <= 1
 0 <= x_2_4 <= 1
 0 <= x_2_10 <= 1
 0 <= x_3_4 <= 1
 0 <= x_3_10 <= 1
 0 <= x_1_1 <= 1
 0 <= x_1_2 <= 1
 0 <= x_1_3 <= 1
 0 <= x_1_5 <= 1
 0 <= x_1_6 <= 1
 0 <= x_1_7 <= 1
 0 <= x_1_8 <= 1
 0 <= x_1_9 <= 1
 0 <= y_1_1 <= 1
 0 <= x_2_1 <= 1
 0 <= x_2_2 <= 1
 0 <= x_2_3 <= 1
 0 <= x_2_5 <= 1
 0 <= x_2_6 <= 1
 0 <= x_2_7 <= 1
 0 <= x_2_8 <= 1
 0 <= x_2_9 <= 1
 0 <= y_2_1 <= 1
 0 <= x_3_1 <= 1
 0 <= x_3_2 <= 1
 0 <= x_3_3 <= 1
 0 <= x_3_5 <= 1
 0 <= x_3_6 <= 1
 0 <= x_3_7 <= 1
 0 <= x_3_8 <= 1
 0 <= x_3_9 <= 1
 0 <= y_3_1 <= 1
Binaries
 x_1_4  x_1_10  x_2_4  x_2_10  x_3_4  x_3_10  x_1_1  x_1_2  x_1_3  x_1_5 
 x_1_6  x_1_7  x_1_8  x_1_9  y_1_1  x_2_1  x_2_2  x_2_3  x_2_5  x_2_6  x_2_7 
 x_2_8  x_2_9  y_2_1  x_3_1  x_3_2  x_3_3  x_3_5  x_3_6  x_3_7  x_3_8  x_3_9 
 y_3_1 
End
